# Solution for model problem_
# Objective value = 1.3687441223994191e+05
x(0_0) 0
x(0_1) 0
x(0_2) 0
x(0_3) 0
x(0_4) 0
x(0_5) 0
x(0_6) 0
x(0_7) 1
x(0_8) 0
x(0_9) 0
x(0_10) 0
x(0_11) 0
x(0_12) 0
x(0_13) 0
x(0_14) 0
x(0_15) 0
x(0_16) 0
x(0_17) 0
x(0_18) 0
x(1_19) 0
x(1_20) 0
x(1_21) 0
x(1_22) 0
x(1_23) 0
x(1_24) 0
x(1_25) 0
x(1_26) 1
x(1_27) 0
x(1_28) 0
x(1_29) 0
x(1_30) 0
x(1_31) 0
x(1_32) 0
x(1_33) 0
x(1_34) 0
x(1_35) 0
x(1_36) 0
x(2_37) 0
x(2_38) 0
x(2_39) 0
x(2_40) 0
x(2_41) 0
x(2_42) 0
x(2_43) 0
x(2_44) 1
x(2_45) 0
x(2_46) 0
x(2_47) 0
x(3_48) 0
x(3_49) 0
x(3_50) 0
x(3_51) 0
x(3_52) 0
x(3_53) 0
x(3_54) 0
x(3_55) 0
x(3_56) 0
x(3_57) 0
x(3_58) 1
x(3_59) 0
x(3_60) 0
x(3_61) 0
x(3_62) 0
x(3_63) 0
x(3_64) 0
x(3_65) 0
x(3_66) 0
x(4_67) 0
x(4_68) 0
x(4_69) 0
x(4_70) 0
x(4_71) 0
x(4_72) 0
x(4_73) 0
x(4_74) 0
x(4_75) 0
x(4_76) 0
x(4_77) 0
x(4_78) 1
x(5_79) 0
x(5_80) 1
x(5_81) 0
x(5_82) 0
x(5_83) 0
x(5_84) 0
x(5_85) 0
x(5_86) 0
x(5_87) 0
x(5_88) 0
x(5_89) 0
x(5_90) 0
x(5_91) 0
x(6_92) 0
x(6_93) 0
x(6_94) 1
x(6_95) 0
x(6_96) 0
x(6_97) 0
x(6_98) 0
x(6_99) 0
x(6_100) 0
x(6_101) 0
x(6_102) 0
x(6_103) 0
x(6_104) 0
x(6_105) 0
x(6_106) 0
x(7_107) 0
x(7_108) 0
x(7_109) 0
x(7_110) 0
x(7_111) 0
x(7_112) 0
x(7_113) 0
x(7_114) 0
x(7_115) 0
x(7_116) 0
x(7_117) 0
x(7_118) 0
x(7_119) 0
x(7_120) 0
x(7_121) 0
x(7_122) 0
x(7_123) 1
x(7_124) 0
x(7_125) 0
x(7_126) 0
x(8_127) 0
x(8_128) 0
x(8_129) 0
x(8_130) 0
x(8_131) 1
x(8_132) 0
x(8_133) 0
x(8_134) 0
x(8_135) 0
x(8_136) 0
x(8_137) 0
x(8_138) 0
x(8_139) 0
x(8_140) 0
x(8_141) 0
x(8_142) 0
x(8_143) 0
x(9_144) 1
x(9_145) 0
x(9_146) 0
x(9_147) 0
x(9_148) 0
x(9_149) 0
x(9_150) 0
x(9_151) 0
x(9_152) 0
x(9_153) 0
x(9_154) 0
x(9_155) 0
x(9_156) 0
x(9_157) 0
x(9_158) 0
x(10_159) 0
x(10_160) 0
x(10_161) 0
x(10_162) 0
x(10_163) 0
x(10_164) 0
x(10_165) 0
x(10_166) 0
x(10_167) 0
x(10_168) 0
x(10_169) 1
x(10_170) 0
x(10_171) 0
x(10_172) 0
x(10_173) 0
x(10_174) 0
x(10_175) 0
x(11_176) 0
x(11_177) 0
x(11_178) 0
x(11_179) 0
x(11_180) 0
x(11_181) 0
x(11_182) 0
x(11_183) 0
x(11_184) 0
x(11_185) 1
x(12_186) 0
x(12_187) 0
x(12_188) 0
x(12_189) 0
x(12_190) 0
x(12_191) 0
x(12_192) 0
x(12_193) 0
x(12_194) 0
x(12_195) 0
x(12_196) 0
x(12_197) 1
x(12_198) 0
x(13_199) 0
x(13_200) 0
x(13_201) 0
x(13_202) 0
x(13_203) 0
x(13_204) 0
x(13_205) 0
x(13_206) 0
x(13_207) 0
x(13_208) 0
x(13_209) 0
x(13_210) 0
x(13_211) 0
x(13_212) 0
x(13_213) 1
x(13_214) 0
x(13_215) 0
x(13_216) 0
x(13_217) 0
x(14_218) 0
x(14_219) 0
x(14_220) 0
x(14_221) 0
x(14_222) 0
x(14_223) 0
x(14_224) 0
x(14_225) 0
x(14_226) 0
x(14_227) 0
x(14_228) 0
x(14_229) 0
x(14_230) 1
x(14_231) 0
x(14_232) 0
x(15_233) 0
x(15_234) 0
x(15_235) 0
x(15_236) 0
x(15_237) 0
x(15_238) 0
x(15_239) 0
x(15_240) 0
x(15_241) 0
x(15_242) 0
x(15_243) 0
x(15_244) 0
x(15_245) 1
x(15_246) 0
x(15_247) 0
x(15_248) 0
x(15_249) 0
x(16_250) 0
x(16_251) 0
x(16_252) 0
x(16_253) 0
x(16_254) 0
x(16_255) 0
x(16_256) 0
x(16_257) 0
x(16_258) 0
x(16_259) 0
x(16_260) 0
x(16_261) 0
x(16_262) 0
x(16_263) 0
x(16_264) 0
x(16_265) 0
x(16_266) 1
x(16_267) 0
x(16_268) 0
x(16_269) 0
x(17_270) 0
x(17_271) 0
x(17_272) 0
x(17_273) 0
x(17_274) 0
x(17_275) 0
x(17_276) 0
x(17_277) 0
x(17_278) 0
x(17_279) 0
x(17_280) 0
x(17_281) 0
x(17_282) 1
x(17_283) 0
x(17_284) 0
x(18_285) 0
x(18_286) 0
x(18_287) 0
x(18_288) 0
x(18_289) 0
x(18_290) 0
x(18_291) 0
x(18_292) 0
x(18_293) 1
x(18_294) 0
x(18_295) 0
x(18_296) 0
x(18_297) 0
x(18_298) 0
x(18_299) 0
x(18_300) 0
x(19_301) 1
x(19_302) 0
x(19_303) 0
x(19_304) 0
x(19_305) 0
x(19_306) 0
x(19_307) 0
x(19_308) 0
x(19_309) 0
x(19_310) 0
x(19_311) 0
x(20_312) 0
x(20_313) 0
x(20_314) 0
x(20_315) 0
x(20_316) 0
x(20_317) 0
x(20_318) 1
x(20_319) 0
x(20_320) 0
x(20_321) 0
x(20_322) 0
x(20_323) 0
x(20_324) 0
x(20_325) 0
x(20_326) 0
x(20_327) 0
x(20_328) 0
x(20_329) 0
x(20_330) 0
x(20_331) 0
x(21_332) 1
x(21_333) 0
x(21_334) 0
x(21_335) 0
x(21_336) 0
x(21_337) 0
x(21_338) 0
x(21_339) 0
x(21_340) 0
x(21_341) 0
x(21_342) 0
x(22_343) 0
x(22_344) 0
x(22_345) 0
x(22_346) 0
x(22_347) 0
x(22_348) 0
x(22_349) 0
x(22_350) 0
x(22_351) 0
x(22_352) 0
x(22_353) 0
x(22_354) 0
x(22_355) 0
x(22_356) 1
x(22_357) 0
x(22_358) 0
x(22_359) 0
x(22_360) 0
x(22_361) 0
x(22_362) 0
x(23_363) 0
x(23_364) 0
x(23_365) 0
x(23_366) 0
x(23_367) 0
x(23_368) 0
x(23_369) 0
x(23_370) 0
x(23_371) 1
x(23_372) 0
x(23_373) 0
x(23_374) 0
x(23_375) 0
x(23_376) 0
x(24_377) 0
x(24_378) 0
x(24_379) 0
x(24_380) 0
x(24_381) 0
x(24_382) 0
x(24_383) 0
x(24_384) 0
x(24_385) 0
x(24_386) 1
x(24_387) 0
x(24_388) 0
x(24_389) 0
x(25_390) 0
x(25_391) 0
x(25_392) 0
x(25_393) 0
x(25_394) 0
x(25_395) 0
x(25_396) 0
x(25_397) 1
x(25_398) 0
x(25_399) 0
x(25_400) 0
x(25_401) 0
x(25_402) 0
x(26_403) 0
x(26_404) 0
x(26_405) 0
x(26_406) 0
x(26_407) 0
x(26_408) 0
x(26_409) 1
x(26_410) 0
x(26_411) 0
x(26_412) 0
x(26_413) 0
x(26_414) 0
x(27_415) 0
x(27_416) 0
x(27_417) 0
x(27_418) 0
x(27_419) 0
x(27_420) 0
x(27_421) 0
x(27_422) 1
x(27_423) 0
x(27_424) 0
x(27_425) 0
x(27_426) 0
x(27_427) 0
x(27_428) 0
x(27_429) 0
x(27_430) 0
x(27_431) 0
x(27_432) 0
x(27_433) 0
x(28_434) 1
x(28_435) 0
x(28_436) 0
x(28_437) 0
x(28_438) 0
x(28_439) 0
x(28_440) 0
x(28_441) 0
x(28_442) 0
x(28_443) 0
x(28_444) 0
x(28_445) 0
x(28_446) 0
x(28_447) 0
x(29_448) 0
x(29_449) 0
x(29_450) 0
x(29_451) 1
x(29_452) 0
x(29_453) 0
x(29_454) 0
x(29_455) 0
x(29_456) 0
x(29_457) 0
x(29_458) 0
x(29_459) 0
x(29_460) 0
x(29_461) 0
x(29_462) 0
x(29_463) 0
x(29_464) 0
x(30_465) 0
x(30_466) 0
x(30_467) 0
x(30_468) 0
x(30_469) 0
x(30_470) 0
x(30_471) 0
x(30_472) 1
x(30_473) 0
x(30_474) 0
x(30_475) 0
x(30_476) 0
x(30_477) 0
x(30_478) 0
x(31_479) 0
x(31_480) 0
x(31_481) 0
x(31_482) 0
x(31_483) 0
x(31_484) 0
x(31_485) 0
x(31_486) 0
x(31_487) 1
x(31_488) 0
x(31_489) 0
x(32_490) 0
x(32_491) 0
x(32_492) 0
x(32_493) 0
x(32_494) 0
x(32_495) 0
x(32_496) 0
x(32_497) 0
x(32_498) 1
x(32_499) 0
x(32_500) 0
x(32_501) 0
x(32_502) 0
x(33_503) 0
x(33_504) 0
x(33_505) 0
x(33_506) 0
x(33_507) 0
x(33_508) 1
x(33_509) 0
x(33_510) 0
x(33_511) 0
x(33_512) 0
x(33_513) 0
x(33_514) 0
x(33_515) 0
x(33_516) 0
x(33_517) 0
x(33_518) 0
x(34_519) 0
x(34_520) 0
x(34_521) 0
x(34_522) 0
x(34_523) 0
x(34_524) 0
x(34_525) 0
x(34_526) 1
x(34_527) 0
x(34_528) 0
x(34_529) 0
x(35_530) 0
x(35_531) 1
x(35_532) 0
x(35_533) 0
x(35_534) 0
x(35_535) 0
x(35_536) 0
x(35_537) 0
x(35_538) 0
x(35_539) 0
x(36_540) 0
x(36_541) 0
x(36_542) 0
x(36_543) 0
x(36_544) 0
x(36_545) 0
x(36_546) 0
x(36_547) 0
x(36_548) 1
x(36_549) 0
x(37_550) 0
x(37_551) 0
x(37_552) 0
x(37_553) 0
x(37_554) 0
x(37_555) 0
x(37_556) 0
x(37_557) 0
x(37_558) 0
x(37_559) 1
x(37_560) 0
x(37_561) 0
x(37_562) 0
x(37_563) 0
x(38_564) 0
x(38_565) 0
x(38_566) 0
x(38_567) 0
x(38_568) 0
x(38_569) 0
x(38_570) 0
x(38_571) 0
x(38_572) 0
x(38_573) 0
x(38_574) 0
x(38_575) 1
x(38_576) 0
x(38_577) 0
x(38_578) 0
x(39_579) 0
x(39_580) 0
x(39_581) 0
x(39_582) 0
x(39_583) 0
x(39_584) 0
x(39_585) 1
x(39_586) 0
x(39_587) 0
x(39_588) 0
x(40_589) 0
x(40_590) 0
x(40_591) 0
x(40_592) 1
x(40_593) 0
x(40_594) 0
x(40_595) 0
x(40_596) 0
x(40_597) 0
x(40_598) 0
x(41_599) 0
x(41_600) 0
x(41_601) 0
x(41_602) 0
x(41_603) 0
x(41_604) 0
x(41_605) 0
x(41_606) 0
x(41_607) 0
x(41_608) 0
x(41_609) 1
x(41_610) 0
x(41_611) 0
x(41_612) 0
x(42_613) 1
x(42_614) 0
x(42_615) 0
x(42_616) 0
x(42_617) 0
x(42_618) 0
x(42_619) 0
x(42_620) 0
x(42_621) 0
x(42_622) 0
x(42_623) 0
x(42_624) 0
x(42_625) 0
x(42_626) 0
x(42_627) 0
x(42_628) 0
x(43_629) 0
x(43_630) 0
x(43_631) 0
x(43_632) 0
x(43_633) 0
x(43_634) 0
x(43_635) 0
x(43_636) 0
x(43_637) 0
x(43_638) 1
x(43_639) 0
x(44_640) 0
x(44_641) 0
x(44_642) 0
x(44_643) 0
x(44_644) 0
x(44_645) 0
x(44_646) 0
x(44_647) 0
x(44_648) 0
x(44_649) 0
x(44_650) 0
x(44_651) 0
x(44_652) 1
x(44_653) 0
x(44_654) 0
x(44_655) 0
x(44_656) 0
x(44_657) 0
x(44_658) 0
x(45_659) 0
x(45_660) 0
x(45_661) 0
x(45_662) 0
x(45_663) 0
x(45_664) 0
x(45_665) 0
x(45_666) 0
x(45_667) 0
x(45_668) 0
x(45_669) 1
x(46_670) 0
x(46_671) 0
x(46_672) 0
x(46_673) 0
x(46_674) 0
x(46_675) 0
x(46_676) 0
x(46_677) 0
x(46_678) 0
x(46_679) 0
x(46_680) 0
x(46_681) 0
x(46_682) 1
x(46_683) 0
x(46_684) 0
x(46_685) 0
x(46_686) 0
x(47_687) 1
x(47_688) 0
x(47_689) 0
x(47_690) 0
x(47_691) 0
x(47_692) 0
x(47_693) 0
x(47_694) 0
x(47_695) 0
x(47_696) 0
x(47_697) 0
x(47_698) 0
x(47_699) 0
x(47_700) 0
x(47_701) 0
x(47_702) 0
x(47_703) 0
x(48_704) 0
x(48_705) 0
x(48_706) 0
x(48_707) 0
x(48_708) 0
x(48_709) 0
x(48_710) 0
x(48_711) 1
x(48_712) 0
x(48_713) 0
x(48_714) 0
x(48_715) 0
x(48_716) 0
x(48_717) 0
x(48_718) 0
x(49_719) 0
x(49_720) 0
x(49_721) 0
x(49_722) 0
x(49_723) 0
x(49_724) 0
x(49_725) 0
x(49_726) 0
x(49_727) 0
x(49_728) 1
x(49_729) 0
x(49_730) 0
x(49_731) 0
x(49_732) 0
x(49_733) 0
x(49_734) 0
x(49_735) 0
x(49_736) 0
x(49_737) 0
x(50_738) 0
x(50_739) 0
x(50_740) 0
x(50_741) 0
x(50_742) 0
x(50_743) 0
x(50_744) 0
x(50_745) 1
x(50_746) 0
x(50_747) 0
x(50_748) 0
x(50_749) 0
x(50_750) 0
x(50_751) 0
x(50_752) 0
x(50_753) 0
x(50_754) 0
x(51_755) 0
x(51_756) 0
x(51_757) 1
x(51_758) 0
x(51_759) 0
x(51_760) 0
x(51_761) 0
x(51_762) 0
x(51_763) 0
x(51_764) 0
x(52_765) 0
x(52_766) 0
x(52_767) 0
x(52_768) 0
x(52_769) 0
x(52_770) 0
x(52_771) 0
x(52_772) 1
x(52_773) 0
x(52_774) 0
x(52_775) 0
x(52_776) 0
x(52_777) 0
x(52_778) 0
x(53_779) 0
x(53_780) 1
x(53_781) 0
x(53_782) 0
x(53_783) 0
x(53_784) 0
x(53_785) 0
x(53_786) 0
x(53_787) 0
x(53_788) 0
x(53_789) 0
x(54_790) 0
x(54_791) 0
x(54_792) 0
x(54_793) 0
x(54_794) 0
x(54_795) 0
x(54_796) 1
x(54_797) 0
x(54_798) 0
x(54_799) 0
x(54_800) 0
x(55_801) 0
x(55_802) 0
x(55_803) 0
x(55_804) 0
x(55_805) 0
x(55_806) 0
x(55_807) 0
x(55_808) 0
x(55_809) 1
x(55_810) 0
x(55_811) 0
x(55_812) 0
x(55_813) 0
x(55_814) 0
x(55_815) 0
x(55_816) 0
x(55_817) 0
x(56_818) 0
x(56_819) 0
x(56_820) 0
x(56_821) 0
x(56_822) 0
x(56_823) 1
x(56_824) 0
x(56_825) 0
x(56_826) 0
x(56_827) 0
x(56_828) 0
x(57_829) 0
x(57_830) 0
x(57_831) 0
x(57_832) 0
x(57_833) 1
x(57_834) 0
x(57_835) 0
x(57_836) 0
x(57_837) 0
x(57_838) 0
x(57_839) 0
x(57_840) 0
x(58_841) 0
x(58_842) 1
x(58_843) 0
x(58_844) 0
x(58_845) 0
x(58_846) 0
x(58_847) 0
x(58_848) 0
x(58_849) 0
x(58_850) 0
x(58_851) 0
x(58_852) 0
x(58_853) 0
x(58_854) 0
x(58_855) 0
x(58_856) 0
x(59_857) 0
x(59_858) 0
x(59_859) 1
x(59_860) 0
x(59_861) 0
x(59_862) 0
x(59_863) 0
x(59_864) 0
x(59_865) 0
x(59_866) 0
x_1_0 2.5074299602489253e+02
s_1_0 0
z_1_0 0
x_1_1 4.9999630044486650e+04
s_1_1 5.0000369955513350e+04
z_1_1 5.0000369955513346e-01
x_1_2 2.5414220512471417e+02
s_1_2 0
z_1_2 0
x_1_3 4.9999577951191866e+04
s_1_3 5.0000422048808134e+04
z_1_3 5.0000422048808135e-01
x_1_4 2.5098405053186480e+02
s_1_4 0
z_1_4 0
x_1_5 2.5307830052170243e+02
s_1_5 0
z_1_5 0
x_1_6 4.9999767940075188e+04
s_1_6 5.0000232059924805e+04
z_1_6 5.0000232059924810e-01
x_1_7 2.5421785112842230e+02
s_1_7 0
z_1_7 0
x_1_8 2.5420279251045633e+02
s_1_8 0
z_1_8 0
x_1_9 2.5428525879594287e+02
s_1_9 0
z_1_9 0
x_1_10 2.5187947505153033e+02
s_1_10 0
z_1_10 0
x_1_11 0
s_1_11 7.7534566575195640e-01
z_1_11 1
x_1_12 2.5199741386994032e+02
s_1_12 0
z_1_12 0
x_1_13 0
s_1_13 4.5906198333250359e-01
z_1_13 1
x_1_14 2.4648452534106826e+02
s_1_14 0
z_1_14 0
x_1_15 251.611158458975
s_1_15 0
z_1_15 0
x_1_16 0
s_1_16 9.4981367420405149e-01
z_1_16 1
x_1_17 4.9999665864099748e+04
s_1_17 5.0000334135900252e+04
z_1_17 5.0000334135900248e-01
x_1_18 2.5445252670160761e+02
s_1_18 0
z_1_18 0
x_1_19 2.5158320884836610e+02
s_1_19 0
z_1_19 0
x_1_20 0
s_1_20 8.5924657111172564e-01
z_1_20 1
x_1_21 0
s_1_21 7.7552561898482963e-01
z_1_21 1
x_1_22 2.5017248783865256e+02
s_1_22 0
z_1_22 0
x_1_23 0
s_1_23 2.5691078777890652e-01
z_1_23 1
x_1_24 2.4702047445251861e+02
s_1_24 0
z_1_24 0
x_1_25 2.5273752448148343e+02
s_1_25 0
z_1_25 0
x_1_26 0
s_1_26 6.6766640054993331e-01
z_1_26 1
x_1_27 2.5244108663498668e+02
s_1_27 0
z_1_27 0
x_1_28 0
s_1_28 1.0785117671184707e+00
z_1_28 1
x_1_29 2.5366311259730719e+02
s_1_29 0
z_1_29 0
x_1_30 0
s_1_30 8.6978895636275411e-01
z_1_30 1
x_1_31 2.5412000661668611e+02
s_1_31 0
z_1_31 0
x_1_32 2.5332393410987487e+02
s_1_32 0
z_1_32 0
x_1_33 0
s_1_33 8.7990362604614347e-01
z_1_33 1
x_1_34 2.5189730787462804e+02
s_1_34 0
z_1_34 0
x_1_35 2.5032307148072192e+02
s_1_35 0
z_1_35 0
x_1_36 0
s_1_36 8.0678663868457079e-01
z_1_36 1
x_1_37 2.5239317020360477e+02
s_1_37 0
z_1_37 0
x_1_38 0
s_1_38 4.5610542327631265e-01
z_1_38 1
x_1_39 2.5280854369699261e+02
s_1_39 0
z_1_39 0
x_1_40 2.5166737097128532e+02
s_1_40 0
z_1_40 0
x_1_41 0
s_1_41 7.1200073766522110e-01
z_1_41 1
x_1_42 2.5083222142606286e+02
s_1_42 0
z_1_42 0
x_1_43 2.5098455709311429e+02
s_1_43 0
z_1_43 0
x_1_44 0
s_1_44 6.9985150580760092e-01
z_1_44 1
x_1_45 2.5141570542816072e+02
s_1_45 0
z_1_45 0
x_1_46 2.5335702161117706e+02
s_1_46 0
z_1_46 0
x_1_47 2.5046872605010196e+02
s_1_47 0
z_1_47 0
x_1_48 2.5130116682126442e+02
s_1_48 0
z_1_48 0
x_1_49 2.5405341632570992e+02
s_1_49 0
z_1_49 0
x_1_50 2.5043719925777305e+02
s_1_50 0
z_1_50 0
x_1_51 0
s_1_51 0.619735318585299
z_1_51 1
x_1_52 0
s_1_52 4.2177973935031332e-01
z_1_52 1
x_1_53 2.5067201953380618e+02
s_1_53 0
z_1_53 0
x_1_54 0
s_1_54 9.9323450541123748e-01
z_1_54 1
x_1_55 0
s_1_55 8.2006242719944566e-01
z_1_55 1
x_1_56 0
s_1_56 1.0061696585617028e+00
z_1_56 1
x_1_57 0
s_1_57 8.6984813978779130e-01
z_1_57 1
x_1_58 2.5294091128653963e+02
s_1_58 0
z_1_58 0
x_1_59 2.5141506964759225e+02
s_1_59 0
z_1_59 0
x_1_60 0
s_1_60 3.0283238655829336e-01
z_1_60 1
x_1_61 2.5374765747971145e+02
s_1_61 0
z_1_61 0
x_1_62 0
s_1_62 3.0305244287592359e-01
z_1_62 1
x_1_63 0
s_1_63 3.9731228996242862e-01
z_1_63 1
x_1_64 246.776169634883
s_1_64 0
z_1_64 0
x_1_65 4.9999504076403711e+04
s_1_65 5.0000495923596289e+04
z_1_65 5.0000495923596289e-01
x_1_66 2.5400821504322130e+02
s_1_66 0
z_1_66 0
x_1_67 0
s_1_67 6.3898834964493290e-01
z_1_67 1
x_1_68 2.5325518245342437e+02
s_1_68 0
z_1_68 0
x_1_69 2.5265403642830682e+02
s_1_69 0
z_1_69 0
x_1_70 2.5169409815780136e+02
s_1_70 0
z_1_70 0
x_1_71 2.5090510222221974e+02
s_1_71 0
z_1_71 0
x_1_72 2.5386761580220690e+02
s_1_72 0
z_1_72 0
x_1_73 0
s_1_73 7.8644242335576564e-01
z_1_73 1
x_1_74 0
s_1_74 9.2152384236396756e-01
z_1_74 1
x_1_75 0
s_1_75 7.1533498047210742e-01
z_1_75 1
x_1_76 2.5240130094135441e+02
s_1_76 0
z_1_76 0
x_1_77 0
s_1_77 3.8782045838888735e-01
z_1_77 1
x_1_78 0
s_1_78 5.7602162560215220e-01
z_1_78 1
x_1_79 2.5326782654225133e+02
s_1_79 0
z_1_79 0
x_1_80 2.5398892153519461e+02
s_1_80 0
z_1_80 0
x_1_81 2.5218532031121919e+02
s_1_81 0
z_1_81 0
x_1_82 2.5116819583996460e+02
s_1_82 0
z_1_82 0
x_1_83 2.5397334012388507e+02
s_1_83 0
z_1_83 0
x_1_84 0
s_1_84 6.5649953906540759e-01
z_1_84 1
x_1_85 252.33821973949
s_1_85 0
z_1_85 0
x_1_86 0
s_1_86 1.1064928856940242e+00
z_1_86 1
x_1_87 2.5059568681008437e+02
s_1_87 0
z_1_87 0
x_1_88 2.5339576316810468e+02
s_1_88 0
z_1_88 0
x_1_89 2.5028111483156005e+02
s_1_89 0
z_1_89 0
x_1_90 4.9999651945273923e+04
s_1_90 5.0000348054726070e+04
z_1_90 5.0000348054726074e-01
x_1_91 4.9999795844782377e+04
s_1_91 5.0000204155217623e+04
z_1_91 5.0000204155217620e-01
x_1_92 0
s_1_92 6.2446857553732116e-01
z_1_92 1
x_1_93 0
s_1_93 7.1764168754452839e-01
z_1_93 1
x_1_94 2.5166011053323058e+02
s_1_94 0
z_1_94 0
x_1_95 2.5388439188151870e+02
s_1_95 0
z_1_95 0
x_1_96 0
s_1_96 0.939553706208244
z_1_96 1
x_1_97 0
s_1_97 6.7632379851420410e-01
z_1_97 1
x_1_98 0
s_1_98 9.7419409995200112e-01
z_1_98 1
x_1_99 4.9999690531258580e+04
s_1_99 5.0000309468741427e+04
z_1_99 5.0000309468741422e-01
x_1_100 0
s_1_100 1.1481724866316654e+00
z_1_100 1
x_1_101 2.4790006469003191e+02
s_1_101 0
z_1_101 0
x_1_102 2.5389032253750383e+02
s_1_102 0
z_1_102 0
x_1_103 2.5138449485971842e+02
s_1_103 0
z_1_103 0
x_1_104 0
s_1_104 7.5334787846077234e-01
z_1_104 1
x_1_105 2.5164821692369213e+02
s_1_105 0
z_1_105 0
x_1_106 4.9999636577597586e+04
s_1_106 5.0000363422402414e+04
z_1_106 5.0000363422402416e-01
x_1_107 2.5214720714603806e+02
s_1_107 0
z_1_107 0
x_1_108 2.5161926847427867e+02
s_1_108 0
z_1_108 0
x_1_109 0
s_1_109 0.761410858889576
z_1_109 1
x_1_110 0
s_1_110 1.6866688744630665e-01
z_1_110 1
x_1_111 0
s_1_111 6.6526822320884094e-01
z_1_111 1
x_1_112 2.5441214532264752e+02
s_1_112 0
z_1_112 0
x_1_113 0
s_1_113 6.5786248492076993e-01
z_1_113 1
x_1_114 0
s_1_114 0.542941568128299
z_1_114 1
x_1_115 2.5181552548426453e+02
s_1_115 0
z_1_115 0
x_1_116 0
s_1_116 0.921780739328824
z_1_116 1
x_1_117 251.987162731581
s_1_117 0
z_1_117 0
x_1_118 4.9999541652410408e+04
s_1_118 5.0000458347589592e+04
z_1_118 5.0000458347589594e-01
x_1_119 0
s_1_119 0.844103698967956
z_1_119 1
x_1_120 0
s_1_120 6.2352656383882277e-01
z_1_120 1
x_1_121 2.5233959848433039e+02
s_1_121 0
z_1_121 0
x_1_122 2.5359132471960038e+02
s_1_122 0
z_1_122 0
x_1_123 0
s_1_123 7.5434529781341553e-01
z_1_123 1
x_1_124 0
s_1_124 6.7206325795268640e-01
z_1_124 1
x_1_125 2.5118693987093172e+02
s_1_125 0
z_1_125 0
x_1_126 2.5179264548047712e+02
s_1_126 0
z_1_126 0
x_1_127 2.5259555511734692e+02
s_1_127 0
z_1_127 0
x_1_128 0
s_1_128 8.3264109383162577e-01
z_1_128 1
x_1_129 2.5115768535061989e+02
s_1_129 0
z_1_129 0
x_1_130 251.285092435072
s_1_130 0
z_1_130 0
x_1_131 2.5073261255025193e+02
s_1_131 0
z_1_131 0
x_1_132 2.5271724798809061e+02
s_1_132 0
z_1_132 0
x_1_133 0
s_1_133 8.6983579047955573e-01
z_1_133 1
x_1_134 2.5047996569237927e+02
s_1_134 0
z_1_134 0
x_1_135 0
s_1_135 8.3344639377901331e-01
z_1_135 1
x_1_136 2.5018463558621482e+02
s_1_136 0
z_1_136 0
x_1_137 2.5403828897885302e+02
s_1_137 0
z_1_137 0
x_1_138 0
s_1_138 3.4573973406804726e-01
z_1_138 1
x_1_139 0
s_1_139 8.5889077349565923e-01
z_1_139 1
x_1_140 2.5100874316971067e+02
s_1_140 0
z_1_140 0
x_1_141 2.5349693198035720e+02
s_1_141 0
z_1_141 0
x_1_142 2.5225309393275529e+02
s_1_142 0
z_1_142 0
x_1_143 2.5044509940780017e+02
s_1_143 0
z_1_143 0
x_1_144 0
s_1_144 7.2367232304532081e-01
z_1_144 1
x_1_145 0
s_1_145 6.9505356671288610e-01
z_1_145 1
x_1_146 2.5300118678248731e+02
s_1_146 0
z_1_146 0
x_1_147 2.5125100250168953e+02
s_1_147 0
z_1_147 0
x_1_148 2.5309324673190025e+02
s_1_148 0
z_1_148 0
x_1_149 49999.5799880425
s_1_149 50000.4200119575
z_1_149 0.500004200119575
x_1_150 2.5214045302942395e+02
s_1_150 0
z_1_150 0
x_1_151 4.9999744289305811e+04
s_1_151 5.0000255710694182e+04
z_1_151 5.0000255710694186e-01
x_1_152 0
s_1_152 1.0571665082825348e+00
z_1_152 1
x_1_153 0
s_1_153 8.1696103839203715e-01
z_1_153 1
x_1_154 0
s_1_154 9.0801950963214040e-01
z_1_154 1
x_1_155 2.5271286264899436e+02
s_1_155 0
z_1_155 0
x_1_156 0
s_1_156 5.9777202474651858e-01
z_1_156 1
x_1_157 2.5048671451582817e+02
s_1_157 0
z_1_157 0
x_1_158 2.5445246450462622e+02
s_1_158 0
z_1_158 0
x_1_159 2.5342486711777070e+02
s_1_159 0
z_1_159 0
x_2_0 1.3600788323994190e+05
